Version identifier: 22.1.1.0 | 2022-11-28 | 9160aff4d
CPXPARAM_ClockType                               1
CPXPARAM_Read_DataCheck                          1
CPXPARAM_Threads                                 1
CPXPARAM_TimeLimit                               7200
CPXPARAM_MIP_Tolerances_AbsMIPGap                0
CPXPARAM_MIP_Tolerances_MIPGap                   0
CPXPARAM_MIP_Tolerances_Integrality              0
Tried aggregator 1 time.
MIP Presolve eliminated 27 rows and 9 columns.
MIP Presolve modified 18 coefficients.
Reduced MIP has 236667 rows, 22002 columns, and 1252869 nonzeros.
Reduced MIP has 22002 binaries, 0 generals, 0 SOSs, and 0 indicators.
Presolve time = 3.26 sec. (1916.79 ticks)
Probing time = 0.04 sec. (16.81 ticks)
Tried aggregator 1 time.
Detecting symmetries...
Reduced MIP has 236667 rows, 22002 columns, and 1252869 nonzeros.
Reduced MIP has 22002 binaries, 0 generals, 0 SOSs, and 0 indicators.
Presolve time = 3.36 sec. (1923.64 ticks)
Probing time = 0.04 sec. (16.81 ticks)
Clique table members: 189240.
MIP emphasis: balance optimality and feasibility.
MIP search method: dynamic search.
Parallel mode: none, using 1 thread.
Root relaxation solution time = 164.75 sec. (39031.46 ticks)

        Nodes                                         Cuts/
   Node  Left     Objective  IInf  Best Integer    Best Bound    ItCnt     Gap

      0     0    18975.0000  7590                  18975.0000    41846         
      0     0    18908.5000  8149                  Cuts: 2362   233943         

Zero-half cuts applied:  4636
Gomory fractional cuts applied:  17

Root node processing (before b&c):
  Real time             = 7200.23 sec. (1364747.96 ticks)
Sequential b&c:
  Real time             =    0.00 sec. (0.00 ticks)
                          ------------
Total (root+branch&cut) = 7200.23 sec. (1364747.96 ticks)
Solution is infeasible.

---------------------
@@@ MIP_time_limit_infeasible
Traceback (most recent call last):
  File "/scratch/scherif/DiverseSAT-journal_sup/DiverseSAT_Supplementary_Experiments/experiment-1/cplex/jobs/../solvers/CPLEX-IW-SE.py", line 105, in <module>
    print(f">>> Benchmark {os.path.basename(cnf_file)} k {k} OPT {int(prob.solution.get_objective_value())}"
  File "/users/scherif/.local/lib/python3.9/site-packages/cplex/_internal/_subinterfaces.py", line 7211, in get_objective_value
    return CPX_PROC.getobjval(self._env._e, self._cplex._lp)
  File "/users/scherif/.local/lib/python3.9/site-packages/cplex/_internal/_procedural.py", line 2055, in getobjval
    check_status(env, status)
  File "/users/scherif/.local/lib/python3.9/site-packages/cplex/_internal/_procedural.py", line 249, in __call__
    raise CplexSolverError(error_string, env, status)
cplex.exceptions.errors.CplexSolverError: CPLEX Error  1217: No solution exists.
